1 2
1 3
1 3
1 4
1 5
1 5
1 6
1 6
1 8
1 8
1 9
1 12
1 15
1 16
1 17
1 18
1 19
1 20
1 20
1 21
1 22
1 22
1 23
1 24
1 25
1 26
1 29
1 30
1 30
1 33
1 34
1 36
1 38
1 39
1 41
1 44
1 45
1 45
1 49
1 57
1 58
1 61
1 63
1 64
1 68
1 70
1 71
1 75
1 82
1 88
1 89
1 95
1 98
1 107
1 107
1 118
1 123
1 124
1 125
1 126
1 135
1 138
1 141
1 144
1 149
1 152
1 154
1 158
1 160
1 161
1 161
1 164
1 168
1 172
1 179
1 181
1 187
1 197
1 199
1 203
1 211
1 211
1 220
1 230
1 233
1 236
1 237
1 239
1 242
1 242
1 250
1 252
1 252
1 263
1 264
1 266
1 283
1 291
1 293
1 303
1 304
1 305
1 314
1 344
1 359
1 385
1 395
1 409
1 412
1 413
1 429
1 430
1 433
1 437
1 447
1 452
1 455
1 462
1 466
1 468
1 473
1 492
1 493
3 4
3 7
3 9
3 10
3 10
3 13
3 14
3 21
3 44
3 53
3 54
3 56
3 61
3 67
3 67
3 87
3 110
3 121
3 126
3 129
3 140
3 156
3 165
3 165
3 166
3 167
3 177
3 187
3 202
3 204
3 216
3 236
3 238
3 270
3 281
3 298
3 318
3 332
3 337
3 347
3 352
3 354
3 401
3 405
3 414
3 421
3 448
3 451
3 486
3 495
3 499
6 7
6 11
6 15
6 26
6 27
6 42
6 48
6 51
6 53
6 65
6 75
6 78
6 79
6 92
6 106
6 184
6 213
6 221
6 257
6 260
6 265
6 272
6 279
6 292
6 319
6 320
6 322
6 367
6 397
6 403
6 443
6 494
5 11
5 18
5 40
5 65
5 69
5 83
5 127
5 170
5 277
5 288
5 360
5 366
5 381
5 416
11 12
11 35
11 43
11 72
11 104
11 139
11 169
11 216
11 266
11 273
11 338
11 373
11 487
8 13
8 36
8 60
8 80
8 94
8 97
8 156
8 186
8 207
8 280
8 316
8 435
4 14
4 40
4 74
4 76
4 193
4 271
4 281
4 326
4 378
4 445
15 16
15 323
2 17
2 19
2 68
2 82
2 106
2 120
2 120
2 127
2 186
2 258
2 292
2 297
2 332
13 23
13 29
13 32
13 84
13 163
13 255
13 311
13 317
13 370
13 438
13 456
18 24
18 37
18 41
18 52
18 63
18 182
18 325
18 326
18 379
18 410
18 415
23 25
23 31
23 32
23 34
23 37
23 51
23 55
23 99
23 116
23 138
23 143
23 323
23 372
23 386
23 440
23 481
17 27
17 31
17 48
17 217
17 248
21 28
21 85
21 162
21 244
21 290
21 308
21 310
21 396
21 460
21 472
21 486
21 489
21 500
16 28
16 66
16 275
16 368
16 372
16 377
16 408
16 418
29 33
29 96
29 137
29 145
29 150
30 35
30 43
30 50
30 71
30 86
30 134
30 177
30 302
30 359
19 38
19 90
19 268
19 420
19 432
24 39
24 119
24 254
24 301
24 415
28 42
28 73
28 146
28 223
28 264
28 297
28 474
41 46
41 90
41 132
41 173
41 271
41 290
41 295
41 319
7 46
7 57
7 77
7 79
7 85
7 96
7 101
7 109
7 145
7 153
7 316
7 325
7 419
7 431
7 439
7 454
36 47
36 49
36 123
36 166
20 47
20 77
20 81
20 89
20 157
20 199
20 219
20 309
20 429
47 50
47 362
25 52
25 87
12 54
12 93
12 104
12 114
12 142
12 149
12 194
12 212
12 301
12 398
27 55
27 78
27 159
27 163
27 171
27 210
27 238
27 278
27 299
27 320
27 340
27 424
27 461
22 56
22 62
22 84
22 110
22 115
22 208
22 212
22 490
56 58
56 66
56 69
56 100
56 153
56 181
56 193
56 201
56 228
56 377
56 431
51 59
51 76
51 91
51 124
51 183
51 263
51 269
51 285
51 300
51 321
51 363
51 364
51 393
51 418
51 423
51 439
43 59
43 72
43 125
43 148
43 237
43 330
43 368
34 60
34 105
34 109
34 143
34 341
34 436
34 485
58 62
58 130
58 338
58 421
58 476
60 64
60 73
60 259
60 380
60 449
60 462
33 70
33 108
33 176
33 369
33 423
33 464
72 74
72 117
72 303
72 337
72 408
65 80
65 91
42 81
42 92
42 146
42 175
42 206
42 257
42 330
42 365
35 83
35 155
35 235
35 466
57 86
57 102
57 151
57 158
57 191
57 198
57 481
87 88
87 131
50 93
75 94
75 171
75 184
54 95
54 118
54 119
54 152
54 208
54 220
54 231
54 455
82 97
49 98
49 108
49 376
49 453
69 99
32 100
32 117
32 241
32 313
32 370
32 395
32 425
77 101
100 102
100 151
59 103
59 183
59 256
59 495
39 103
39 243
39 496
95 105
95 174
95 386
40 111
40 131
40 136
40 140
40 154
40 157
40 205
40 312
40 327
40 343
40 356
40 406
48 111
48 113
48 275
84 112
84 296
84 450
78 112
78 180
78 354
78 464
78 469
78 475
78 484
78 490
62 113
62 345
89 114
89 155
89 219
89 313
89 328
89 351
89 482
52 115
52 224
52 253
52 260
52 261
52 278
81 116
81 192
81 227
81 344
81 450
111 121
64 122
64 133
64 230
64 234
64 360
53 122
53 141
53 173
53 284
53 306
53 438
53 483
10 128
114 128
114 383
38 129
38 240
38 358
44 130
44 137
44 232
44 239
44 299
44 307
44 351
44 397
126 132
126 179
126 475
66 133
66 147
66 198
66 262
66 392
66 430
66 496
73 134
73 168
73 267
73 322
73 361
91 135
91 267
121 136
121 205
121 232
121 294
121 318
121 389
70 139
70 197
70 245
98 142
98 214
98 328
98 349
104 144
104 148
104 195
104 213
104 289
104 445
107 147
107 160
107 254
107 358
107 385
107 390
93 150
102 159
102 185
102 270
149 162
103 164
143 167
143 259
143 285
143 384
117 169
101 170
101 178
101 180
101 191
101 253
101 293
101 335
101 346
160 172
160 201
160 207
160 215
160 258
160 355
160 433
160 473
105 174
105 224
105 280
169 175
169 194
169 262
169 294
169 374
169 409
159 176
159 235
159 272
123 178
9 182
9 246
175 185
175 218
175 353
175 357
175 400
176 188
176 190
176 222
176 302
176 394
176 477
176 498
136 188
136 250
136 352
136 367
136 387
136 411
136 428
136 440
146 189
146 196
146 217
146 283
146 493
118 189
118 203
118 244
118 282
118 357
110 190
110 277
110 457
110 498
178 192
178 249
178 417
179 195
179 243
179 449
46 196
46 334
127 200
186 200
97 202
97 228
174 204
174 218
120 206
55 209
158 209
153 210
153 310
204 214
204 329
161 215
161 348
155 221
155 472
167 222
167 229
167 265
167 333
167 363
167 456
167 484
63 223
63 286
63 362
63 387
63 497
183 225
183 353
99 225
188 226
188 480
177 226
177 296
90 227
90 463
90 499
163 229
197 231
197 269
197 279
197 288
197 436
185 233
185 427
185 461
71 234
71 251
71 327
26 240
26 305
26 307
26 392
115 241
115 390
115 453
115 479
165 245
150 246
150 491
171 247
171 402
229 247
229 341
122 248
208 249
208 273
208 287
151 251
151 274
151 347
151 396
227 255
248 256
248 478
184 261
213 268
213 404
233 274
233 477
266 276
68 276
68 350
68 371
264 282
76 284
76 383
86 286
86 309
275 287
275 314
275 491
85 289
261 291
276 295
226 298
226 424
260 300
191 304
240 306
240 403
37 308
172 311
172 335
172 364
116 312
271 315
271 442
271 476
45 315
45 343
45 346
302 317
205 321
282 324
282 407
282 444
139 324
139 342
152 329
243 331
243 366
307 331
14 333
14 389
287 334
287 369
287 401
290 336
219 336
156 339
142 339
206 340
206 376
278 342
278 441
278 448
278 467
201 345
310 348
192 349
192 361
326 350
67 355
67 414
222 356
222 428
96 365
96 388
96 426
96 441
134 371
140 373
140 379
335 374
335 468
289 375
273 375
273 400
273 437
164 378
306 380
306 404
378 381
370 382
351 382
147 384
255 388
255 416
211 391
211 434
194 391
194 488
354 393
232 394
288 398
288 405
288 478
242 399
130 399
130 435
130 454
269 402
388 406
338 407
303 410
281 411
245 412
374 413
237 417
277 419
277 446
333 420
346 422
346 425
346 460
321 422
410 426
369 427
293 432
293 480
312 434
429 442
311 443
256 444
404 446
435 447
435 500
436 451
430 452
257 457
88 458
393 458
438 459
262 459
460 463
413 465
234 465
372 467
387 469
263 470
128 470
439 471
449 471
380 474
418 479
157 482
124 483
469 485
330 487
459 488
224 489
202 492
458 494
444 497
