1 2
1 3
1 4
1 4
1 8
1 27
1 28
1 30
1 30
1 38
1 44
1 53
1 103
1 109
1 167
1 222
1 433
1 546
1 676
1 695
1 702
1 796
1 966
2 3
2 7
2 8
2 9
2 14
2 24
2 79
2 109
2 112
2 152
2 410
2 428
2 537
2 580
2 634
2 676
2 685
2 705
2 714
2 770
2 776
2 810
2 865
2 950
3 5
3 6
3 6
3 12
3 14
3 20
3 24
3 25
3 27
3 40
3 49
3 68
3 71
3 75
3 85
3 88
3 89
3 90
3 107
3 125
3 144
3 171
3 173
3 181
3 188
3 201
3 221
3 278
3 298
3 298
3 299
3 328
3 336
3 346
3 373
3 383
3 418
3 458
3 464
3 470
3 484
3 489
3 490
3 515
3 517
3 529
3 565
3 572
3 573
3 624
3 688
3 725
3 738
3 789
3 818
3 831
3 864
3 887
3 898
3 914
3 991
4 5
4 11
4 16
4 19
4 22
4 26
4 29
4 32
4 35
4 48
4 50
4 93
4 98
4 99
4 123
4 135
4 143
4 160
4 162
4 174
4 194
4 222
4 250
4 285
4 311
4 341
4 357
4 368
4 415
4 425
4 448
4 456
4 483
4 492
4 557
4 560
4 580
4 581
4 584
4 664
4 721
4 772
4 819
4 824
4 872
4 927
4 953
5 7
5 16
5 21
5 22
5 35
5 51
5 62
5 74
5 94
5 121
5 138
5 210
5 256
5 287
5 350
5 392
5 407
5 455
5 576
5 595
5 745
5 797
5 818
5 828
5 842
5 845
5 986
7 9
7 10
7 25
7 45
7 70
7 88
7 135
7 138
7 184
7 211
7 289
7 301
7 579
7 599
7 644
7 916
8 10
8 15
8 40
8 59
8 74
8 81
8 93
8 115
8 124
8 139
8 149
8 199
8 213
8 215
8 223
8 266
8 436
8 472
8 574
8 606
8 645
8 748
8 757
8 801
8 812
8 983
9 11
9 13
9 19
9 23
9 48
9 53
9 89
9 97
9 101
9 106
9 159
9 178
9 183
9 184
9 206
9 213
9 254
9 270
9 295
9 336
9 345
9 366
9 377
9 415
9 479
9 485
9 518
9 525
9 526
9 632
9 671
9 767
9 773
9 809
9 839
9 917
9 940
9 972
9 984
6 12
6 15
6 18
6 23
6 39
6 42
6 63
6 92
6 100
6 196
6 208
6 263
6 306
6 414
6 531
6 558
6 626
6 657
6 682
6 695
6 716
6 719
6 733
6 792
6 801
6 976
10 13
10 44
10 104
10 119
10 129
10 207
10 275
10 375
10 382
10 406
10 527
13 17
13 131
13 132
13 188
13 193
13 229
13 246
13 255
13 471
13 613
13 631
13 658
13 749
13 782
13 790
11 17
11 26
11 29
11 31
11 38
11 45
11 54
11 61
11 72
11 77
11 92
11 98
11 100
11 105
11 115
11 147
11 166
11 179
11 202
11 209
11 226
11 253
11 270
11 283
11 288
11 297
11 332
11 350
11 353
11 358
11 381
11 384
11 385
11 399
11 443
11 494
11 507
11 532
11 541
11 547
11 563
11 609
11 612
11 643
11 665
11 731
11 764
11 769
11 806
11 809
11 870
11 931
17 18
17 47
17 168
17 185
17 217
17 219
17 606
18 20
18 42
18 43
18 59
18 70
18 78
18 82
18 120
18 136
18 142
18 153
18 230
18 262
18 338
18 610
18 655
18 710
18 731
18 746
18 774
18 803
18 880
18 920
18 935
18 997
14 21
14 34
14 52
14 58
14 67
14 76
14 104
14 134
14 154
14 161
14 165
14 166
14 169
14 197
14 197
14 203
14 233
14 435
14 439
14 447
14 509
14 509
14 516
14 564
14 635
14 648
14 669
14 675
14 698
14 717
14 825
25 28
25 64
25 267
25 283
25 402
25 673
25 804
25 972
25 1000
30 31
30 41
30 46
30 57
30 77
30 123
30 150
30 182
30 293
30 335
30 369
30 411
30 447
30 465
30 486
30 502
30 555
30 557
30 629
30 999
31 32
31 36
31 60
31 87
31 112
31 165
31 192
31 260
31 261
31 269
31 275
31 302
31 399
31 573
31 661
31 666
31 701
31 765
31 798
27 33
27 34
27 86
27 150
27 257
27 341
27 463
27 472
27 669
23 33
23 54
23 66
23 73
23 80
23 95
23 102
23 141
23 306
23 424
23 589
23 600
23 680
23 747
23 807
23 950
34 36
34 37
34 41
34 46
34 62
34 175
34 187
34 190
34 239
34 264
34 266
34 287
34 311
34 315
34 334
34 535
34 575
34 650
34 680
34 699
34 875
34 881
34 966
35 37
35 83
35 94
35 95
35 172
35 228
35 420
21 39
21 49
21 57
21 114
21 118
21 139
21 151
21 225
21 247
21 440
21 445
21 471
21 480
21 519
21 684
21 763
21 773
21 857
20 43
20 55
20 159
20 174
20 493
20 526
20 552
20 586
20 599
20 633
20 688
20 941
37 47
37 55
37 65
37 96
37 97
37 117
37 127
37 191
37 203
37 224
37 265
37 286
37 309
37 334
37 340
37 434
37 637
37 878
37 946
37 970
49 50
49 154
49 233
49 284
49 290
49 320
49 331
49 353
49 356
49 357
49 416
49 457
49 495
49 524
49 539
49 584
49 656
49 886
49 973
19 51
19 58
19 63
19 68
19 133
19 167
19 229
19 533
19 542
19 743
19 951
42 52
41 56
41 172
41 189
41 227
41 374
41 454
41 494
41 618
41 757
26 56
26 134
26 189
26 245
26 304
26 409
26 423
26 431
26 438
26 621
26 681
26 754
26 782
26 984
33 60
33 64
33 66
33 86
33 142
33 198
33 216
33 267
33 277
33 310
33 339
33 340
33 347
33 376
33 400
33 414
33 431
33 562
33 564
33 576
33 754
33 812
33 844
33 884
33 921
12 61
12 80
12 84
12 105
12 122
12 129
12 219
12 312
12 329
12 482
12 523
12 623
12 708
64 65
64 71
64 76
64 231
64 263
64 264
64 323
64 329
64 337
64 362
64 418
64 487
64 511
64 616
64 683
64 785
64 831
64 964
64 974
59 67
59 371
59 514
59 542
59 556
59 587
59 639
59 723
59 771
59 896
65 69
65 195
65 196
65 212
65 215
65 304
65 308
65 378
65 390
65 861
65 935
46 69
46 79
46 91
46 148
46 327
46 371
46 666
46 697
46 848
46 861
46 894
22 72
22 121
22 317
22 452
22 784
48 73
48 144
48 160
48 234
48 316
48 323
48 344
48 369
48 441
48 454
48 585
48 662
48 740
48 747
48 857
48 910
48 913
48 943
45 75
45 116
45 171
45 186
45 236
45 250
45 278
45 301
45 352
45 376
45 478
45 544
45 619
45 661
45 728
45 858
72 78
72 405
72 730
72 786
72 797
28 81
28 141
28 163
28 187
28 211
28 252
28 330
28 347
28 459
28 499
28 647
28 681
28 877
28 987
73 82
73 113
73 209
73 295
73 318
73 706
40 83
40 169
40 194
40 244
40 284
40 482
32 84
32 111
32 148
32 161
32 192
32 230
32 370
32 421
32 528
32 665
32 784
32 957
83 85
83 804
29 87
29 238
29 460
29 712
29 775
82 90
82 128
82 366
82 765
82 793
82 899
82 978
16 91
16 113
16 170
16 214
16 241
16 248
16 273
16 342
16 412
16 536
16 716
54 96
57 99
57 117
57 276
57 619
100 101
100 320
91 102
91 106
91 116
91 130
91 151
91 312
91 319
91 356
91 530
91 637
91 640
56 103
56 158
56 227
56 281
56 282
56 292
56 488
56 770
81 107
81 193
81 220
81 322
81 324
81 428
81 660
81 734
81 902
81 970
93 108
93 119
93 234
93 253
93 300
93 358
93 549
93 622
93 854
93 980
62 108
62 157
62 258
62 272
62 276
62 277
62 333
62 442
62 444
62 577
62 588
62 623
62 673
62 705
62 893
62 942
62 949
79 110
79 976
47 110
47 133
47 176
47 199
47 408
47 897
107 111
107 120
107 146
107 220
107 326
107 677
107 718
107 882
107 945
107 975
75 114
75 305
75 390
75 439
87 118
87 124
87 147
87 282
87 318
87 325
87 416
87 429
87 516
87 551
87 714
87 918
68 122
68 132
68 158
68 324
68 363
68 532
68 758
89 125
89 127
89 128
89 146
89 261
89 271
89 461
89 505
89 570
89 597
89 692
89 814
89 850
69 126
69 164
69 205
69 268
69 359
69 465
69 504
69 520
77 126
77 190
77 246
77 281
77 612
43 130
43 242
43 259
43 345
43 364
43 548
43 838
43 877
74 131
74 136
74 524
74 583
74 608
74 611
74 627
74 848
74 978
74 988
105 137
105 240
105 410
105 459
105 460
105 653
105 762
105 892
114 137
114 164
114 248
114 869
114 909
124 140
124 337
124 874
84 140
84 198
84 217
84 294
84 398
84 592
84 960
122 143
122 149
122 232
122 292
122 349
122 735
122 951
52 145
52 595
52 674
52 937
52 940
101 145
101 899
121 152
121 186
121 202
121 244
121 687
143 153
143 863
143 908
70 155
70 321
70 382
70 403
70 545
70 611
70 670
70 755
70 827
70 852
106 155
106 205
106 679
106 844
130 156
130 200
130 204
130 271
130 308
130 326
130 361
130 800
130 969
139 156
139 983
50 157
126 162
146 163
146 201
146 206
146 226
146 388
146 391
146 413
146 541
146 558
146 783
146 901
95 168
95 210
95 218
95 249
95 251
95 343
95 401
95 404
95 436
95 475
95 543
95 594
95 866
111 170
111 280
111 335
111 370
111 643
102 173
102 617
144 175
144 216
144 243
144 355
144 387
144 442
144 444
144 497
144 503
144 533
144 538
144 565
144 604
144 625
144 704
144 746
144 840
144 883
115 176
115 297
115 539
115 838
125 177
125 182
125 540
125 617
125 982
125 989
154 177
154 207
154 501
154 686
154 799
128 178
128 285
128 453
128 703
128 962
103 179
103 351
103 750
98 180
98 309
98 342
98 544
98 900
98 953
78 180
78 262
148 181
148 328
148 683
148 748
99 183
99 218
99 310
99 430
99 528
99 926
155 185
155 614
155 986
86 191
86 279
86 718
174 195
118 200
118 359
118 955
188 204
188 214
188 231
188 235
188 268
188 422
188 473
188 569
188 987
113 208
113 886
204 212
204 314
204 467
204 963
159 221
159 238
159 398
178 223
178 760
110 224
110 590
145 225
145 396
145 470
145 672
145 954
53 228
53 873
191 232
172 235
172 425
172 868
92 236
92 559
92 590
92 713
92 827
198 237
117 237
117 368
117 373
117 434
117 634
194 239
194 273
194 633
36 240
36 274
36 379
36 451
36 615
36 616
207 241
207 649
51 242
51 386
51 453
129 243
129 405
129 759
129 795
129 890
233 245
233 247
233 286
233 403
233 486
233 654
233 815
233 872
231 249
231 579
160 251
160 554
160 769
215 252
215 395
215 841
215 954
80 254
80 364
80 719
80 752
80 914
80 948
218 255
218 451
218 641
238 256
238 258
238 958
244 257
244 492
244 860
244 974
131 259
200 260
200 907
184 265
184 997
199 269
170 272
170 513
170 571
170 652
170 938
150 274
150 426
150 550
150 568
150 572
150 700
150 820
150 941
150 995
76 279
76 290
133 280
133 299
133 305
133 394
133 771
133 859
196 288
196 503
251 289
251 464
251 720
39 291
39 396
39 668
39 893
39 908
247 291
247 372
247 374
247 409
247 631
247 947
228 293
228 659
96 294
164 296
164 302
164 427
164 446
164 540
63 296
63 491
208 300
224 303
224 332
224 365
224 620
171 303
171 394
171 696
171 817
171 873
127 307
127 435
127 441
127 480
127 939
127 948
15 307
15 438
15 659
220 313
220 477
279 313
142 314
142 384
142 548
142 574
142 608
142 642
142 780
142 814
142 817
142 824
142 905
277 315
277 710
257 316
257 411
257 702
257 790
162 317
162 354
162 452
248 319
282 321
282 513
282 597
282 778
282 973
316 322
316 344
316 360
316 426
316 466
316 468
316 510
316 596
316 775
316 904
316 998
55 325
55 759
88 327
88 402
88 476
88 820
88 858
246 330
246 391
246 417
246 939
246 952
136 331
136 397
136 956
169 333
169 585
66 338
331 339
331 959
299 343
299 852
186 346
186 789
291 348
291 994
285 348
285 361
285 383
285 663
285 981
310 349
310 957
165 351
165 448
104 352
104 694
104 698
104 928
234 354
234 395
234 823
140 355
140 527
205 360
205 421
205 868
288 362
288 690
288 834
230 363
230 515
175 365
175 833
295 367
295 389
295 727
138 367
138 404
138 507
138 563
138 598
138 876
138 879
267 372
341 375
341 568
341 724
44 377
44 419
44 821
180 378
180 419
158 379
158 481
158 505
158 535
158 990
323 380
323 417
323 808
312 380
312 473
312 491
312 497
240 381
240 495
240 605
382 385
382 393
382 546
166 386
166 422
166 496
166 566
166 638
166 847
166 924
303 387
268 388
268 592
153 389
153 479
153 521
153 796
38 392
250 393
250 469
250 604
250 878
250 917
376 397
376 466
376 892
182 400
372 401
216 406
216 840
71 407
385 408
263 412
263 449
263 722
263 762
263 811
263 813
263 865
263 891
263 944
263 980
401 413
116 420
116 506
116 521
116 578
259 423
259 483
393 424
393 626
384 427
195 429
195 437
209 430
209 463
209 525
209 621
209 816
209 826
210 432
210 530
210 591
418 432
369 433
369 813
369 979
380 437
380 989
120 440
360 443
360 846
179 445
326 446
383 449
405 450
405 570
405 571
405 653
334 450
334 462
334 478
334 504
334 828
334 925
320 455
320 641
320 994
361 456
361 462
361 484
361 615
361 651
377 457
377 651
324 458
423 461
423 923
424 467
424 489
424 995
419 468
176 469
394 474
394 514
439 474
119 475
119 942
444 476
437 477
437 543
437 642
437 675
437 871
429 481
429 720
429 932
311 485
311 674
311 717
342 487
406 488
406 522
406 553
485 490
484 493
371 496
149 498
286 498
286 644
286 846
286 936
108 499
108 856
488 500
488 561
488 761
440 500
440 562
440 734
440 930
183 501
183 510
183 766
254 502
347 506
347 607
347 898
192 508
434 508
434 708
501 511
501 649
501 919
374 512
374 605
374 751
494 512
283 517
283 589
213 518
213 610
213 808
435 519
321 520
319 522
338 523
412 529
412 726
517 531
177 534
177 800
420 534
469 536
469 723
469 822
469 915
498 537
432 538
237 545
290 547
290 620
290 811
450 549
85 550
292 551
392 552
392 742
422 553
422 586
294 554
294 788
275 555
275 715
275 751
396 556
396 582
389 559
389 635
389 871
389 913
389 925
389 947
446 560
512 561
132 566
132 607
132 689
337 567
513 567
513 933
413 569
413 829
431 575
232 577
232 766
214 578
354 581
500 582
500 667
357 583
58 587
529 588
529 918
529 958
185 591
368 593
471 593
471 794
471 822
471 993
457 594
457 961
467 596
467 832
521 598
309 600
201 601
560 601
328 602
328 640
328 692
328 776
330 602
330 664
330 743
330 843
445 603
445 922
427 603
226 609
226 624
226 709
364 613
364 678
223 614
223 657
223 662
601 618
601 650
601 888
152 622
152 679
448 625
448 660
448 946
468 627
468 849
480 628
387 628
411 629
411 821
411 890
293 630
470 630
426 632
426 779
532 636
532 916
333 636
548 638
548 730
548 741
137 639
137 833
399 645
399 823
332 646
497 646
255 647
217 648
217 691
539 652
379 654
325 655
615 656
590 658
590 778
410 663
630 667
203 668
203 830
656 670
656 806
656 887
135 671
135 965
503 672
676 677
669 678
414 682
315 684
463 685
463 697
345 686
345 699
496 687
483 689
483 706
483 885
585 690
151 691
151 761
151 988
276 693
219 693
219 855
219 895
664 694
607 696
363 700
67 701
667 703
667 736
260 704
546 707
546 755
558 707
442 709
442 907
212 711
167 711
542 712
542 867
542 906
608 713
478 715
272 721
272 835
314 722
314 841
628 724
635 725
635 816
452 726
479 727
479 944
686 728
686 903
686 999
671 729
190 729
572 732
572 737
572 768
572 803
703 732
239 733
239 869
604 735
726 736
359 737
378 738
298 739
245 739
245 777
722 740
722 805
650 741
631 742
631 745
264 744
296 744
296 795
187 749
737 750
355 752
672 753
673 753
673 826
356 756
356 955
706 756
706 799
706 915
351 758
351 912
456 760
584 763
567 764
723 767
705 768
611 772
611 894
134 774
600 777
598 779
754 780
381 781
381 859
489 781
525 783
526 785
690 786
690 897
668 787
589 787
589 929
540 788
284 791
262 791
193 792
701 793
329 794
329 982
441 798
657 802
657 927
657 985
708 802
681 805
680 807
680 836
756 810
123 815
665 819
763 825
685 829
689 830
793 832
816 834
748 835
646 836
289 837
570 837
570 855
570 921
514 839
779 842
482 843
482 866
482 909
780 845
660 847
848 849
848 992
304 850
736 851
736 853
840 851
443 853
642 854
790 856
241 860
626 862
825 862
731 863
731 895
404 864
845 867
844 870
509 874
507 875
613 876
633 879
624 880
449 881
449 977
408 882
408 901
499 883
499 919
453 884
734 885
742 888
640 889
269 889
472 891
318 896
617 900
300 902
806 903
173 904
815 905
663 906
854 910
876 911
907 911
576 912
648 920
610 922
873 923
683 924
721 926
256 928
564 929
568 930
24 931
301 932
807 933
807 985
901 934
729 934
350 936
602 937
606 938
933 943
433 945
433 949
711 952
491 956
929 959
950 960
533 961
552 962
528 963
826 964
856 965
587 967
728 967
541 968
273 968
645 969
761 971
872 971
712 975
823 977
773 979
464 981
735 990
813 991
843 992
654 993
94 996
343 996
211 998
888 1000
