1 177
1 839
1 889
2 59
2 279
2 731
2 996
3 115
3 646
3 829
3 898
4 7
4 87
4 690
4 778
4 946
5 795
6 49
6 336
6 380
7 8
7 308
7 313
7 586
7 872
7 917
8 188
8 541
9 128
9 975
10 80
10 120
10 348
10 402
10 419
10 439
10 945
11 547
11 956
12 312
13 348
13 889
13 976
14 303
15 686
15 774
16 106
16 175
16 887
17 18
18 131
18 741
19 88
19 258
19 289
19 910
20 336
20 860
20 872
21 119
21 125
21 295
21 567
21 575
21 824
22 88
22 427
22 628
22 821
23 120
23 272
23 276
23 305
23 387
24 123
24 675
25 393
25 965
26 31
26 41
26 215
26 268
26 892
27 191
27 352
27 370
27 516
27 660
27 705
27 814
28 143
28 213
28 561
28 918
28 976
29 559
29 784
32 211
32 289
32 748
33 47
33 280
33 326
33 956
34 74
34 432
34 998
35 311
35 846
36 78
36 401
36 440
36 887
37 194
37 742
38 567
38 592
38 638
38 655
39 107
39 577
39 905
40 164
40 241
40 243
40 247
40 305
40 492
40 641
41 367
41 432
41 794
42 142
42 479
42 640
42 807
43 83
43 473
43 516
43 837
43 853
44 248
44 264
44 476
44 542
44 584
44 591
44 598
45 108
45 114
45 208
45 781
45 786
46 368
46 520
46 792
47 65
47 338
47 360
47 617
47 806
48 53
48 76
48 550
48 714
48 923
48 965
49 212
49 361
49 678
50 52
50 953
51 77
51 159
51 188
51 251
51 325
51 552
52 104
52 194
52 535
53 126
53 476
53 691
53 714
53 722
54 317
54 407
54 571
54 879
54 956
54 968
55 107
55 438
55 478
55 522
55 714
55 796
55 886
55 900
56 117
56 393
56 524
56 612
56 825
56 926
57 105
57 223
57 357
57 679
57 943
57 947
58 155
58 405
58 684
59 167
59 233
59 523
59 665
59 707
59 781
59 783
60 113
60 131
60 390
60 403
60 416
60 519
60 526
60 762
61 88
61 408
61 991
62 908
62 928
62 937
63 523
63 734
63 771
64 185
64 241
64 267
64 704
64 873
64 998
65 646
65 762
65 943
66 101
66 583
66 653
67 282
67 327
67 329
67 401
67 555
67 818
67 908
68 217
68 475
68 575
68 587
68 645
68 649
68 657
69 171
69 289
69 373
69 909
70 296
70 427
70 800
70 810
70 982
71 317
71 319
71 529
71 727
72 890
72 932
72 972
73 328
73 434
73 590
73 611
73 679
73 709
73 838
73 874
74 166
74 329
74 496
74 948
75 168
75 211
75 557
75 608
75 839
76 267
76 492
77 142
77 176
77 233
77 390
77 924
77 981
78 335
78 391
78 574
78 895
78 995
79 104
79 535
79 895
80 664
80 1000
81 408
81 473
81 824
82 230
82 764
83 160
83 439
83 978
84 233
84 446
84 658
84 984
85 303
85 334
85 368
85 379
85 436
85 559
85 857
86 408
86 505
87 614
87 732
87 776
87 976
88 94
88 286
88 661
89 106
89 297
89 509
89 639
90 143
90 569
90 632
90 735
90 767
91 542
91 813
91 998
92 242
92 441
92 451
92 531
92 712
92 794
92 913
93 400
93 492
93 838
94 328
94 383
94 685
95 295
95 501
95 953
96 112
96 162
96 297
96 435
96 565
96 567
96 738
97 149
97 244
97 529
97 593
97 597
97 674
97 939
97 989
98 272
98 961
99 426
99 561
100 190
100 322
100 632
100 964
100 994
101 196
101 350
101 484
102 128
102 288
102 327
102 861
102 905
103 152
103 277
103 566
103 823
104 110
104 333
104 968
105 224
105 572
106 107
106 109
106 275
106 407
106 555
106 708
106 840
107 393
107 798
107 855
108 126
108 477
108 628
109 195
109 380
109 402
110 442
110 569
110 968
111 202
111 408
111 946
112 574
114 244
114 258
114 301
114 359
114 377
114 632
114 856
115 163
115 808
116 182
116 418
116 428
116 508
116 937
117 632
117 680
117 795
118 427
119 181
119 348
119 422
120 515
120 617
120 971
121 170
121 504
121 746
121 784
122 176
122 242
122 731
122 834
123 264
123 447
123 466
123 540
123 633
123 792
123 848
124 320
124 363
124 398
125 153
125 219
125 341
126 212
126 268
126 441
126 581
126 651
127 402
127 631
128 355
128 402
128 556
128 623
128 790
128 841
129 248
129 848
129 880
129 979
130 234
130 491
131 914
132 326
132 506
132 589
132 693
133 230
133 579
133 589
134 702
134 997
135 206
135 547
135 642
136 618
136 711
136 902
136 985
137 709
138 223
138 293
138 304
139 638
140 489
141 196
141 336
141 493
141 675
142 380
143 197
143 296
143 838
143 844
143 967
144 447
144 467
145 704
145 829
146 220
147 312
147 428
147 993
148 224
148 453
149 247
150 758
150 982
151 307
151 395
151 464
151 676
152 225
152 672
152 888
153 578
153 615
153 800
153 828
154 548
155 663
156 164
156 325
156 359
156 992
157 320
157 649
157 673
158 397
158 440
158 639
158 689
158 870
159 169
159 233
159 624
159 980
160 194
160 224
160 329
160 407
162 330
162 376
162 570
162 669
162 872
162 904
163 366
163 552
163 594
163 717
163 833
164 334
164 414
164 959
164 979
165 636
165 978
166 192
166 526
166 743
167 232
167 288
167 805
167 878
168 818
170 335
170 742
170 851
171 249
171 618
171 783
172 273
172 630
172 773
173 356
173 492
173 675
174 478
174 700
174 959
175 518
175 913
176 414
177 337
177 340
177 983
178 515
178 577
178 675
178 895
179 361
179 395
179 932
180 462
180 526
180 943
180 972
181 304
181 365
181 387
181 578
181 681
181 769
181 827
181 871
181 878
182 223
182 471
183 556
183 966
184 544
185 217
185 221
185 337
186 452
186 585
186 999
187 293
187 371
187 500
187 614
187 924
188 670
189 282
189 532
189 634
189 712
190 311
190 396
191 262
191 497
192 482
192 528
192 530
192 889
193 606
193 607
193 610
193 645
193 693
193 984
194 203
194 433
194 741
194 792
194 809
194 827
194 858
195 409
196 556
196 559
196 560
196 756
197 591
197 637
197 786
198 392
198 499
198 684
198 895
198 908
199 374
199 616
199 831
200 326
200 426
200 459
200 520
200 591
200 901
201 323
201 613
201 700
201 846
202 424
203 252
203 438
203 538
203 565
204 286
204 570
204 652
204 735
204 742
205 255
205 280
205 472
205 811
206 445
206 772
207 761
208 678
209 367
209 402
209 585
209 777
209 884
210 432
210 662
210 906
212 380
213 374
213 888
214 405
214 481
214 556
214 570
215 457
216 261
216 336
216 428
216 984
217 254
217 275
217 534
217 611
217 738
217 805
217 941
218 348
218 353
218 553
218 589
218 667
218 998
219 441
219 473
219 539
219 580
219 757
220 226
220 334
220 470
220 702
222 524
222 810
222 950
223 700
223 992
224 270
224 366
224 536
224 556
224 828
224 948
225 277
225 733
226 600
226 942
227 552
228 837
229 394
229 572
229 675
229 687
230 310
231 401
231 746
232 295
232 353
232 384
233 602
234 300
234 344
234 405
236 318
236 377
236 463
236 657
236 943
237 365
237 557
237 639
237 783
238 336
238 348
239 295
239 567
239 744
239 805
239 889
239 908
239 975
240 507
240 755
241 282
241 414
241 490
241 575
241 650
241 932
242 545
242 801
242 847
243 749
243 831
243 997
244 428
244 780
244 898
245 284
245 588
245 776
245 863
246 266
246 326
246 454
246 497
246 514
246 665
246 845
246 872
247 436
247 983
248 264
248 273
248 822
249 457
249 611
249 694
250 766
250 899
251 261
251 652
251 657
251 723
251 784
251 789
251 910
251 957
252 310
252 398
252 812
253 363
253 420
253 738
254 439
254 539
254 877
254 956
255 256
255 309
255 721
256 338
256 364
256 447
256 500
256 502
256 663
256 959
257 502
257 630
258 595
258 667
259 638
260 591
260 684
260 998
261 397
261 481
261 789
262 744
263 899
264 339
265 308
265 606
265 684
266 280
266 641
266 929
267 976
267 983
268 357
269 459
269 700
270 283
270 946
271 330
271 628
271 982
272 458
272 500
272 688
272 957
272 985
273 291
273 476
274 305
274 317
274 804
275 805
275 969
276 466
277 294
277 331
277 446
277 659
278 315
278 595
278 995
279 451
279 935
280 453
280 468
280 489
280 506
280 802
280 837
280 938
280 995
281 879
283 494
283 628
283 788
283 915
283 963
284 673
284 710
285 614
286 488
286 497
286 808
287 577
287 993
287 999
288 453
288 487
288 670
289 352
289 561
289 584
289 637
289 851
290 331
290 726
290 783
290 833
290 851
290 982
291 626
292 625
292 757
292 795
292 801
293 516
293 702
293 784
293 918
293 987
294 428
294 443
294 607
294 695
294 805
296 370
296 470
296 755
297 299
297 383
297 585
297 666
297 714
297 749
297 763
297 772
298 375
298 462
298 959
299 590
299 675
300 531
300 545
300 702
300 720
300 902
301 640
301 986
302 413
302 497
302 971
302 980
303 580
304 429
304 536
304 557
304 794
304 928
304 976
305 615
305 863
305 900
305 994
306 670
307 648
307 668
308 506
308 563
308 597
308 858
309 394
309 884
310 534
310 595
310 628
310 933
311 465
311 660
311 878
312 881
313 546
313 553
313 685
313 719
313 810
313 962
314 710
314 755
315 940
316 448
316 481
316 583
316 623
316 640
316 688
316 741
317 646
318 718
318 881
319 344
319 376
319 954
320 785
320 905
320 938
321 398
321 485
321 971
322 550
322 636
323 840
324 682
324 719
324 906
324 963
325 778
325 792
326 392
326 512
326 659
327 479
327 714
327 890
328 565
329 551
329 806
329 830
330 885
331 618
334 510
334 598
334 765
335 452
335 628
335 845
336 547
336 662
336 717
336 819
337 514
337 635
338 399
338 441
338 702
338 831
338 939
338 985
339 443
340 715
341 393
341 747
342 401
342 558
343 574
343 809
343 821
343 952
344 542
344 776
345 379
345 562
345 711
346 426
346 988
347 461
347 860
347 954
348 717
348 854
348 881
348 913
348 936
349 713
350 519
351 358
351 863
352 433
352 625
352 734
352 987
353 683
353 750
353 756
353 866
354 625
354 900
355 732
355 878
357 565
357 958
358 486
358 502
358 512
358 637
358 872
359 599
359 626
359 664
359 846
360 698
360 753
361 470
361 501
361 571
361 746
361 869
361 888
361 902
362 396
362 641
362 698
363 890
363 927
364 494
365 931
365 990
366 382
367 406
367 534
367 664
367 672
367 784
367 936
368 851
368 887
368 995
369 394
369 450
369 631
369 650
369 900
370 388
370 396
370 414
371 1000
372 709
372 789
373 394
373 677
373 687
373 918
374 554
374 555
374 566
374 568
374 774
375 523
375 675
375 763
376 644
376 657
377 708
377 852
377 918
377 965
378 618
378 713
378 794
379 465
379 618
380 418
380 522
380 663
381 620
381 780
382 628
382 676
382 685
382 754
382 817
385 902
385 986
386 433
387 473
387 579
387 785
388 822
388 954
388 956
389 602
390 661
390 796
392 422
392 620
393 458
393 632
393 673
394 407
394 453
394 656
394 893
395 850
395 974
395 990
396 686
396 917
398 724
398 934
399 505
399 549
399 684
399 883
400 492
400 599
401 496
401 716
402 478
403 607
403 685
403 855
404 651
404 669
404 679
405 475
405 490
405 540
405 852
406 461
406 696
406 976
407 421
407 626
407 735
408 782
408 818
408 903
409 430
411 490
411 690
411 815
411 936
412 633
413 657
413 783
413 905
414 437
414 614
414 639
414 777
415 604
415 746
416 805
416 911
417 888
418 619
418 812
419 583
419 604
420 789
421 723
421 870
422 497
422 548
422 568
422 963
423 621
423 890
423 893
424 948
425 546
425 554
425 830
425 988
426 896
426 921
427 524
427 651
427 678
427 946
428 437
428 504
429 533
429 978
430 879
431 540
431 732
432 684
432 920
433 450
433 514
433 640
433 652
434 632
434 747
435 637
435 694
436 737
437 499
438 519
438 626
438 866
439 546
439 877
440 571
440 630
440 695
440 966
441 538
441 552
441 577
441 596
441 790
441 901
442 557
442 646
442 919
443 471
443 750
443 770
443 818
443 902
444 553
444 682
444 723
445 625
445 742
446 602
446 626
446 761
447 705
448 583
448 912
449 911
451 597
451 718
452 671
452 988
453 713
453 754
453 826
454 696
454 905
455 473
456 822
457 695
458 466
458 946
459 551
459 561
459 631
460 986
461 489
461 554
462 560
462 610
462 681
462 884
463 492
463 718
463 852
463 984
464 498
464 502
464 606
464 700
465 596
465 664
465 826
466 520
466 680
466 788
468 691
468 819
468 920
469 739
471 623
471 654
472 680
472 948
473 474
474 478
475 615
475 781
476 493
476 549
476 764
476 916
478 529
479 663
479 819
479 908
482 521
482 824
482 965
483 504
483 535
483 650
483 869
483 977
484 514
484 725
484 929
485 698
485 792
486 526
487 815
488 982
489 628
489 787
489 963
490 512
490 572
490 762
490 985
493 830
494 880
494 988
495 762
495 811
495 954
495 988
496 687
496 877
497 920
498 590
498 735
498 828
498 834
498 887
498 983
500 621
500 719
500 981
501 515
501 775
501 776
502 619
502 735
502 865
502 898
503 903
504 543
504 667
505 791
506 731
506 787
506 831
507 703
507 766
508 603
508 951
509 635
509 873
509 946
510 741
511 581
511 666
511 689
512 991
514 802
514 958
515 717
515 899
516 988
516 990
517 524
517 733
517 747
517 827
519 702
519 746
519 954
520 967
521 647
521 846
522 609
522 641
523 712
523 913
524 612
524 672
524 814
525 795
525 893
527 905
527 986
528 558
528 648
529 623
529 792
529 793
530 969
531 680
531 907
532 593
532 930
533 680
533 968
534 798
534 998
535 554
535 625
536 664
536 715
537 636
537 647
537 833
538 546
539 740
540 817
542 634
543 703
543 908
544 603
545 575
545 620
545 946
546 608
546 666
546 784
547 719
547 937
547 943
547 973
548 912
549 737
549 809
550 884
551 910
551 957
552 855
552 990
553 636
553 998
554 611
554 786
555 574
555 606
555 636
556 783
556 885
557 767
557 812
557 833
558 728
558 735
558 775
558 892
559 663
560 582
560 622
560 958
561 583
561 691
561 749
561 889
562 648
562 787
564 680
564 765
565 626
565 750
568 627
568 685
568 758
568 925
569 830
569 854
570 582
571 839
571 891
571 999
574 648
574 652
576 811
577 715
578 689
579 648
579 937
580 593
581 684
582 819
582 894
582 908
583 735
584 923
585 629
585 817
586 881
587 732
587 790
587 909
588 848
588 920
589 614
589 762
590 677
590 683
590 747
590 780
590 988
591 668
591 726
591 856
592 960
593 918
594 657
594 980
595 851
595 952
596 638
597 664
598 870
599 834
600 700
600 821
601 702
603 657
603 659
603 683
603 803
604 753
604 952
605 628
605 712
605 764
605 769
605 812
606 690
607 688
607 899
608 759
609 867
611 713
611 889
612 751
612 759
613 640
613 660
613 748
613 880
614 863
615 886
616 949
616 960
617 688
617 918
618 665
618 673
618 957
620 760
620 956
621 744
622 830
623 899
626 665
626 923
627 751
628 893
629 659
629 801
630 768
631 731
631 920
632 961
633 672
633 901
634 778
634 832
636 739
636 810
637 726
637 799
637 869
637 965
638 730
638 935
638 977
639 715
639 958
640 657
640 902
641 830
641 994
642 766
643 842
645 713
647 743
648 762
648 768
648 947
649 734
649 903
649 948
650 718
650 802
650 808
650 815
653 716
653 806
653 891
654 832
654 894
656 775
656 984
657 879
658 663
658 899
659 763
659 992
660 941
660 978
661 702
662 927
662 971
662 975
664 679
664 749
664 813
666 856
667 740
667 853
667 935
668 719
668 745
670 782
670 911
670 967
671 712
671 992
672 711
672 777
673 704
673 832
674 696
674 930
675 902
676 958
677 868
679 916
679 954
680 745
683 810
684 813
684 913
685 790
686 723
687 786
688 764
690 857
691 870
692 823
693 732
694 768
694 976
694 980
695 789
695 794
696 912
696 957
698 886
700 868
700 951
701 881
701 973
703 919
706 825
706 911
706 984
706 1000
707 789
707 838
709 816
709 994
710 953
711 737
711 797
713 743
713 769
718 851
719 816
719 973
720 828
721 760
721 824
721 867
721 877
723 778
726 821
726 900
727 854
727 996
728 822
729 819
730 799
730 982
731 970
732 935
734 749
734 931
735 868
735 901
735 947
736 922
736 934
739 883
739 921
742 758
742 792
742 823
745 835
747 804
747 851
748 806
748 882
749 907
749 990
750 752
750 810
752 861
756 768
756 929
757 770
757 818
757 942
757 949
758 771
758 925
765 871
765 937
765 961
766 803
766 881
767 788
767 865
767 985
770 853
770 927
772 832
772 918
774 776
775 951
777 869
780 982
780 990
782 957
783 952
784 994
788 948
791 938
792 900
796 947
796 966
798 843
798 950
799 878
799 1000
802 912
804 814
807 820
807 936
808 847
810 925
812 988
813 921
815 978
817 842
817 859
817 975
818 850
819 847
820 894
822 964
823 980
827 928
829 861
830 978
831 840
832 983
835 836
835 962
836 970
837 877
837 884
837 981
838 889
841 979
843 844
843 943
844 962
847 924
847 943
848 966
849 952
851 875
852 911
854 965
854 994
856 915
858 866
858 940
860 997
861 944
861 960
862 901
862 971
863 883
864 892
865 919
870 968
870 987
874 925
874 938
875 926
879 893
884 907
884 930
885 997
891 920
894 994
902 938
909 914
913 953
914 916
914 989
915 998
916 989
922 981
923 963
929 969
936 1000
940 995
941 988
942 972
952 990
972 985
982 987
