0 1
0 999
0 2
0 998
1 3
1 999
1 425
1 365
1 450
2 3
2 4
2 299
3 4
3 5
3 849
3 298
3 462
4 6
4 760
4 222
4 479
5 6
5 7
6 7
6 8
6 89
7 8
7 9
7 757
8 10
8 699
9 10
9 11
10 11
10 12
11 306
11 328
11 719
12 14
12 54
12 107
13 14
13 15
13 262
14 15
14 565
14 365
15 16
15 17
15 39
16 17
16 18
17 18
17 19
18 20
18 456
19 20
19 21
20 21
20 22
21 23
21 92
21 209
22 24
22 298
23 24
23 25
23 457
24 25
24 26
24 679
24 119
24 191
25 26
25 835
26 27
26 114
27 28
27 243
28 29
28 30
29 30
29 31
30 32
30 82
31 32
31 33
32 33
32 34
33 35
33 522
34 35
34 36
35 36
35 37
36 37
36 873
37 38
37 158
37 182
38 39
38 913
38 682
39 40
39 641
40 41
40 42
40 415
41 42
41 43
42 43
42 44
43 44
43 45
44 45
44 46
44 652
44 941
45 47
45 548
46 47
46 48
46 189
46 803
47 48
47 444
48 50
48 227
49 51
49 686
49 105
49 170
50 51
50 52
50 112
50 950
51 53
51 342
52 53
52 54
53 55
53 659
53 64
54 55
54 655
55 56
55 57
56 57
56 58
57 59
57 188
58 59
58 60
59 60
59 815
60 61
60 714
60 666
61 62
61 63
61 516
61 492
62 64
62 216
63 64
63 227
64 66
65 67
65 921
65 745
66 67
66 68
66 157
67 69
67 753
68 69
68 70
69 70
69 71
70 71
70 844
71 72
71 73
72 73
72 74
73 74
73 75
73 160
73 686
74 75
74 76
75 76
75 912
75 791
76 77
76 78
77 78
77 412
77 216
78 80
78 354
79 80
79 699
80 81
80 253
81 82
81 634
82 83
82 84
83 84
83 597
84 85
84 86
84 492
85 86
85 87
85 907
86 88
86 367
86 903
87 88
87 89
88 89
88 90
88 762
89 90
90 91
90 92
91 92
91 93
92 93
92 94
93 94
93 95
94 96
94 429
95 784
95 98
95 707
96 97
96 991
97 98
97 99
98 99
98 100
99 100
99 101
100 101
100 102
101 102
101 103
101 190
101 265
102 104
102 152
103 104
103 105
104 105
104 106
104 407
105 107
106 107
106 108
107 108
108 109
108 110
109 110
109 630
110 111
110 112
111 112
111 113
111 145
112 114
112 920
113 114
113 157
114 116
114 859
114 581
115 116
115 117
116 117
116 118
117 118
117 402
118 119
118 120
119 120
119 782
119 982
120 872
120 971
120 411
121 123
121 439
122 123
122 124
122 759
122 988
123 124
123 125
124 125
124 126
125 126
125 127
125 605
126 127
126 414
127 128
127 129
128 129
128 130
128 218
129 130
129 223
130 131
130 132
130 207
131 132
131 699
131 942
132 134
132 136
133 134
133 135
134 135
134 389
135 136
135 137
136 137
136 138
137 138
137 139
137 393
138 139
138 140
139 140
139 141
140 141
140 227
140 676
140 483
141 142
141 143
142 143
142 144
143 144
143 145
144 145
144 146
145 147
145 661
146 147
146 148
147 148
147 149
148 149
148 150
148 779
149 150
149 151
149 898
150 151
150 152
151 152
151 153
151 479
151 991
152 154
152 164
153 154
153 155
154 155
154 156
155 157
155 441
156 157
156 928
157 158
158 160
159 160
159 161
160 749
161 162
161 163
162 163
162 164
163 164
163 165
163 536
164 166
164 475
165 166
165 354
166 167
166 168
167 168
167 169
168 169
168 170
169 170
169 171
170 172
171 172
171 173
171 217
172 174
172 646
173 175
173 665
174 175
174 938
175 176
175 177
175 934
176 178
176 666
176 367
177 178
177 312
178 179
178 180
179 180
179 181
179 202
180 181
180 182
180 607
181 183
181 207
181 447
182 183
182 184
183 184
183 185
184 185
184 186
184 532
185 186
185 187
185 682
185 909
186 187
186 188
186 716
187 188
187 189
188 189
188 190
189 191
190 951
191 192
191 363
192 193
192 194
193 194
193 195
194 195
194 478
195 196
195 197
196 197
196 198
196 356
197 199
197 908
198 199
198 200
198 372
199 200
199 201
200 201
200 202
201 202
201 203
202 203
203 204
203 627
204 205
204 206
204 622
205 206
205 207
205 595
206 207
206 208
207 297
208 209
208 214
209 211
209 984
209 306
210 211
210 212
211 212
211 213
212 213
212 214
212 763
213 214
213 215
214 215
214 216
214 501
215 216
215 217
216 217
216 218
216 559
217 219
217 763
218 219
219 220
219 221
220 221
220 222
220 825
221 222
221 223
222 224
223 225
223 530
224 225
224 226
225 226
225 227
225 312
225 924
226 227
226 540
227 229
228 230
228 418
229 231
229 477
229 397
230 231
230 232
230 296
231 232
231 233
232 233
232 234
233 234
233 420
234 235
234 236
235 237
235 258
236 237
236 238
236 290
237 238
237 239
238 239
238 240
239 240
239 241
240 241
240 242
241 243
241 661
242 243
242 244
243 244
243 245
244 245
244 246
244 660
244 885
245 246
245 247
246 247
246 248
247 248
247 249
247 943
248 249
248 250
249 250
249 251
250 251
250 252
250 681
251 252
251 253
251 375
252 253
252 254
252 606
253 446
253 290
254 256
254 611
255 256
255 707
256 257
256 258
257 258
257 259
257 817
258 259
258 260
259 260
259 261
260 262
260 751
261 262
261 263
261 287
262 263
263 264
263 658
264 265
264 266
265 266
265 637
266 267
266 268
267 268
267 269
268 269
268 314
269 270
269 404
269 839
269 822
270 271
270 344
271 272
271 273
271 893
272 274
272 839
273 274
273 275
274 275
274 276
274 328
275 277
275 432
276 277
276 554
276 569
276 923
277 278
277 279
278 280
278 353
279 831
279 493
280 281
280 282
280 316
281 283
281 733
282 283
282 284
283 284
283 285
284 285
284 286
285 286
285 287
286 287
286 288
287 289
288 289
288 290
288 343
289 290
289 427
290 847
291 292
291 471
292 294
292 432
293 295
293 842
294 295
294 296
295 296
295 416
296 297
297 298
297 299
298 299
299 301
299 643
300 302
300 757
301 302
301 303
302 303
302 304
302 629
303 304
303 305
303 538
304 305
304 306
304 815
305 306
305 307
306 307
307 308
307 309
307 519
308 309
308 310
308 769
309 310
309 841
310 311
310 312
311 312
311 313
312 314
313 314
313 315
314 315
314 316
315 316
315 317
316 318
317 318
317 319
317 796
318 319
318 320
319 320
319 766
320 321
320 322
321 322
321 323
321 458
322 323
322 324
322 689
323 324
323 325
323 598
323 963
324 325
324 326
324 397
325 326
325 327
326 327
326 328
327 328
327 329
327 785
328 329
328 499
329 331
329 740
329 387
329 346
330 332
330 439
330 962
331 332
331 333
332 333
332 334
333 335
333 456
334 336
334 493
335 336
335 337
336 337
336 338
337 338
337 483
338 339
338 340
339 340
339 341
340 342
340 793
340 815
341 342
341 343
342 343
342 344
343 345
344 345
344 346
345 347
345 611
346 347
347 348
347 349
348 349
348 350
349 350
349 351
350 352
350 701
351 352
351 353
351 743
352 353
352 354
352 615
352 829
353 354
353 355
354 355
354 356
355 356
355 627
355 433
356 358
357 359
357 492
358 359
358 360
359 360
359 361
360 362
360 901
361 362
361 363
361 985
362 363
362 364
363 365
364 365
364 366
365 540
365 983
366 367
366 368
366 905
367 368
368 369
368 370
368 624
369 370
369 371
369 849
370 371
370 372
371 762
371 533
372 373
373 374
373 375
373 746
373 998
374 375
374 376
374 521
375 376
376 378
376 707
377 378
377 379
378 380
378 785
379 380
379 381
380 381
380 468
381 382
381 400
382 383
382 384
383 384
383 385
384 947
384 428
384 958
385 386
385 387
386 387
386 388
387 389
388 389
388 915
389 391
389 498
390 391
390 392
390 477
390 507
391 392
391 393
392 394
392 697
393 395
394 395
394 396
395 396
395 397
396 397
396 398
398 399
398 400
399 400
399 401
400 401
400 402
401 402
401 403
402 403
402 404
403 404
403 405
404 406
405 406
405 407
406 407
406 408
407 409
408 410
408 895
408 680
408 708
409 410
409 411
410 411
410 412
411 412
412 414
412 568
412 973
413 415
413 591
414 415
414 416
414 588
415 416
416 417
416 418
417 418
417 419
418 420
418 505
419 420
419 421
420 421
420 422
421 422
421 423
422 423
422 424
423 424
423 425
424 425
424 426
425 426
425 885
426 427
426 428
426 969
427 428
427 429
428 429
428 895
429 430
429 431
430 431
430 432
431 432
431 433
431 545
432 433
432 564
432 758
433 434
433 435
434 435
434 436
435 436
435 437
435 446
436 437
436 608
436 621
437 438
437 973
438 439
438 440
439 440
439 441
440 441
440 442
441 442
441 443
441 688
441 700
442 443
442 444
442 514
443 444
443 445
444 445
444 489
445 447
445 473
446 447
447 449
448 449
448 450
449 450
449 451
450 500
451 453
451 823
452 453
452 454
453 454
453 455
454 455
454 456
455 456
455 457
456 457
456 458
456 560
457 458
457 535
458 526
459 460
459 885
460 461
460 462
461 462
461 463
461 518
461 490
462 463
462 624
462 983
463 464
463 465
464 465
464 466
464 580
465 466
465 470
465 742
466 467
466 468
467 468
467 724
468 469
468 990
468 711
469 470
469 471
470 471
470 562
470 598
471 473
471 573
472 473
472 474
472 844
473 474
473 475
474 475
474 476
475 476
475 477
475 617
476 477
476 478
477 478
478 479
478 480
479 790
480 481
480 482
480 819
481 482
481 483
481 695
482 483
482 484
483 484
484 485
484 486
485 486
485 487
486 487
486 488
487 488
487 489
488 490
488 816
489 490
489 491
490 491
491 492
491 493
493 494
493 495
494 495
494 496
495 496
495 771
496 498
496 728
496 801
497 498
497 499
498 500
498 543
499 500
500 501
500 690
501 503
502 503
502 504
503 504
503 505
504 505
504 506
505 506
505 507
505 552
506 507
506 508
507 508
508 509
508 510
509 510
509 511
510 511
510 512
510 978
511 513
511 617
512 514
512 559
512 840
513 514
513 515
513 888
513 925
514 515
515 516
515 517
516 518
517 518
517 931
518 746
519 996
520 521
520 522
520 761
521 522
522 523
522 524
523 524
523 525
524 525
524 526
524 793
525 527
525 715
526 527
526 528
527 528
527 529
528 530
528 862
529 531
529 830
530 531
530 532
531 532
531 533
532 534
533 534
533 535
534 535
534 536
535 537
536 537
537 538
537 539
538 540
539 540
539 541
540 542
541 542
541 543
542 543
542 544
543 544
543 545
544 546
544 740
545 833
546 547
546 548
547 548
547 549
548 549
548 550
549 550
549 551
550 551
550 552
551 552
551 553
552 553
553 554
553 555
554 769
555 557
555 915
556 557
556 558
557 558
557 559
558 559
558 560
559 857
560 712
561 562
561 563
562 564
563 564
563 565
564 837
565 567
566 568
566 727
567 568
567 569
568 569
569 571
570 571
570 572
571 572
571 573
572 574
572 845
573 574
573 575
574 575
574 576
575 576
575 577
576 577
576 578
577 578
577 579
578 579
578 580
579 580
579 581
580 582
580 931
581 583
582 583
582 584
583 584
583 585
584 585
584 586
584 591
585 586
585 587
586 587
586 588
587 588
587 673
588 590
588 847
589 590
589 591
590 591
590 592
591 593
591 997
592 593
592 594
593 594
593 595
594 595
594 596
594 907
595 597
595 669
596 597
596 598
597 598
597 599
598 870
599 601
599 851
600 601
600 602
601 602
601 603
601 989
602 603
602 671
603 604
603 605
604 606
604 937
605 607
606 608
607 608
608 610
609 611
609 973
610 611
610 612
611 612
611 613
612 613
612 910
613 614
613 615
613 742
614 615
614 616
615 617
616 617
616 618
617 619
618 619
618 620
619 620
619 621
620 621
620 622
621 622
621 623
622 624
623 624
623 625
625 626
625 627
626 627
626 628
627 629
628 629
628 630
629 631
630 631
630 632
631 632
631 633
632 633
632 634
633 635
633 930
634 635
634 636
635 636
635 637
636 637
636 638
636 941
636 756
637 638
638 639
638 640
639 640
639 641
640 641
640 642
640 684
641 739
642 643
642 785
643 645
644 645
644 646
644 867
645 646
645 647
646 647
646 648
647 648
647 649
648 649
648 650
649 650
649 651
649 869
650 651
650 652
651 652
651 653
652 654
653 654
653 655
653 748
654 655
654 656
654 928
655 656
655 657
656 657
656 658
657 658
657 659
658 659
658 660
659 660
659 661
660 661
661 663
662 663
662 664
663 664
663 665
664 665
664 666
664 781
665 666
665 667
665 937
666 667
666 668
667 668
667 669
668 669
668 670
669 671
670 671
670 672
671 672
671 673
672 673
672 674
673 674
673 675
674 675
674 676
674 754
675 676
675 677
676 677
676 715
677 678
677 679
678 679
678 680
679 681
680 681
681 682
683 684
683 685
684 685
684 827
685 687
685 855
686 687
686 887
687 689
687 988
688 690
689 691
690 691
690 692
691 692
691 693
691 804
692 693
692 694
693 694
693 695
694 695
694 696
695 696
696 697
696 698
697 698
697 699
698 699
698 700
699 701
700 701
701 702
701 703
702 703
702 704
702 889
703 704
703 705
704 705
704 706
705 707
705 769
706 707
706 708
707 708
707 879
708 841
709 710
709 711
710 711
710 733
711 712
712 713
712 714
713 714
713 715
714 716
715 716
715 717
715 976
716 718
716 842
717 718
717 719
718 719
718 720
718 959
719 720
719 796
720 721
720 722
721 722
721 723
722 723
722 724
723 724
723 725
723 977
724 725
724 881
724 861
725 726
725 727
726 727
726 728
727 729
727 742
728 729
728 730
728 863
729 730
729 731
730 731
730 732
731 732
731 733
732 733
732 734
732 858
733 734
733 735
734 735
734 736
735 736
735 737
736 737
736 738
737 749
737 931
738 739
738 740
739 740
739 741
740 741
740 742
741 742
741 743
742 881
743 744
744 745
744 746
745 746
746 748
747 748
747 749
748 750
749 750
749 751
750 751
750 752
751 752
751 753
752 753
752 754
753 754
753 755
754 755
755 756
755 757
756 757
756 946
757 759
758 759
758 760
759 761
760 761
760 762
761 763
762 763
763 798
764 765
764 766
765 766
765 767
766 767
766 768
767 768
767 769
768 769
768 770
768 970
769 771
770 771
770 772
771 772
771 773
772 773
772 774
773 774
773 775
774 775
774 776
775 776
775 777
776 777
776 778
777 778
777 779
778 780
778 910
779 781
780 781
780 782
781 783
782 784
783 784
783 785
784 785
784 786
785 787
786 787
786 788
787 788
787 789
788 789
788 979
789 790
789 791
789 826
790 792
791 792
792 793
792 794
793 795
794 795
794 796
795 796
795 833
797 798
797 799
798 800
799 800
799 801
800 801
800 802
801 803
802 803
802 804
803 804
803 926
804 806
805 806
805 807
806 807
806 808
806 818
807 808
807 809
807 974
808 810
808 848
809 810
809 811
810 811
810 812
811 812
811 813
812 813
812 814
812 904
813 814
813 815
814 815
814 816
816 817
816 855
817 819
818 819
819 820
820 821
820 822
821 822
821 823
822 823
823 824
823 825
824 825
824 826
825 827
826 828
827 829
828 829
828 830
829 830
830 832
830 837
831 832
831 833
832 833
832 834
833 834
833 835
834 835
834 836
835 836
835 837
836 837
836 838
837 838
837 839
838 839
838 840
839 840
839 841
840 842
841 842
841 843
842 843
843 844
843 845
844 846
845 846
845 847
846 847
846 848
847 849
848 849
848 850
850 851
850 852
851 852
851 853
852 853
852 854
853 854
853 855
854 855
854 856
855 856
855 857
856 857
856 858
857 858
857 872
858 860
859 860
859 861
860 861
860 862
861 896
862 863
862 864
863 912
864 865
864 866
865 867
865 965
866 867
866 868
866 881
867 869
868 870
868 874
869 870
870 871
870 872
871 872
871 873
872 873
872 874
873 874
873 875
874 875
874 876
875 876
875 877
876 877
876 878
877 878
877 879
878 879
878 880
878 968
879 881
880 881
880 882
882 883
882 884
883 884
883 885
884 885
884 886
885 886
886 887
886 888
887 897
888 889
889 891
890 891
890 892
891 892
891 893
892 893
892 894
893 895
894 895
894 896
895 896
895 897
896 897
896 898
897 898
897 899
898 899
899 900
899 901
900 901
900 902
901 902
901 903
902 903
902 904
903 905
904 906
905 906
906 907
906 908
908 909
908 910
909 910
910 911
910 912
911 912
911 913
912 913
912 914
913 914
913 915
914 915
914 916
915 916
915 917
916 917
916 918
917 918
917 919
918 919
918 920
919 920
919 921
920 922
921 922
921 923
922 923
922 924
923 924
923 925
924 926
925 926
926 928
927 928
927 929
928 930
929 930
929 931
930 931
930 932
931 933
932 933
932 934
933 934
933 935
934 935
935 936
935 937
935 953
936 937
936 938
937 938
938 939
938 940
939 940
939 941
940 941
940 942
942 943
942 944
943 944
944 945
944 946
945 946
945 947
946 948
947 948
947 949
948 949
948 950
949 950
949 951
950 951
951 952
951 953
952 953
952 954
953 954
954 955
954 956
955 956
955 957
956 957
956 958
957 958
957 959
958 959
959 960
960 961
960 962
961 962
961 963
962 964
963 965
964 965
964 966
965 966
965 967
966 967
966 968
967 968
967 969
968 969
969 971
970 971
971 972
971 973
972 973
972 974
973 974
974 976
975 976
975 977
976 977
977 979
978 979
979 980
979 981
980 981
980 982
981 982
981 983
982 984
983 984
984 986
985 986
986 987
986 988
987 988
987 989
988 990
989 991
990 991
990 992
991 993
992 993
992 994
993 994
993 995
994 995
994 996
995 996
995 997
996 997
996 998
997 999
